WARNING: for repeatability, setting FPU to use double precision
============================[ Problem Statistics ]=============================
|                                                                             |
|  Number of variables:            50                                         |
|  Number of clauses:             218                                         |
|  Parse time:                   0.00 s                                       |
|                                                                             |
============================[ Search Statistics ]==============================
| Conflicts |          ORIGINAL         |          LEARNT          | Progress |
|           |    Vars  Clauses Literals |    Limit  Clauses Lit/Cl |          |
===============================================================================
===============================================================================
restarts              : 1
conflicts             : 71             (45396 /sec)
decisions             : 89             (0.00 % random) (56905 /sec)
propagations          : 1027           (656650 /sec)
conflict literals     : 341            (12.34 % deleted)
Memory used           : 20.00 MB
CPU time              : 0.001564 s

SATISFIABLE
